\ This file was automatically generated by Zimpl
\ set C := {"21A","21B","21C","21D", "22A&108or67","25","22B","128A","135A","135B","127A","127B","127C", "160", "168", "167", "
\ 150A", "CPSN"};
\ set E := {<"21A","21B">, <"21B","21C">, <"21C","21D">, <"21C","22A&108or67">, <"21C","25">, <"21C","128A">, <"22A&108or67", "
\ 22B">, <"22A&108or67", "150A">, <"22A&108or67", "167">, <"22A&108or67", "127A">, <"22A&108or67", "168">, <"22A&108or67", "135
\ A">, <"22A&108or67", "CPSN">, <"167","160">, <"127A","127B">, <"127B","127C">, <"135A","135B">};
\ set  P[] := powerset(C);
\ set  K   := indexset(P);
\ set Q := { 1..12 };
\ set CQ := Q * C;
\ var x[CQ] binary;
\ var z[E] binary;
\ var y[C] integer;
\ param quater[Q * C] :=        |"21A","21B","21C","21D", "22A&108or67","25","22B","128A","135A","135B","127A","127B","127C", "
\ 160", "168", "167", "150A", "CPSN"|    | 1|    1,    1,    1,    1,             1,   1,    1,     1,     1,     1,     1,    
\  1,     1,     1,     1,     1,      1,      1|                             | 2|    2,    2,    2,    2,             2,   2, 
\    2,     2,     2,     2,     2,     2,     2,     2,     2,     2,      2,      2|    | 3|    3,    3,    3,    3,         
\     3,   3,    3,     3,     3,     3,     3,     3,     3,     3,     3,     3,      3,      3|    | 4|    4,    4,    4,   
\  4,             4,   4,    4,     4,     4,     4,     4,     4,     4,     4,     4,     4,      4,      4|    | 5|    5,   
\  5,    5,    5,             5,   5,    5,     5,     5,     5,     5,     5,     5,     5,     5,     5,      5,      5|    |
\  6|    6,    6,    6,    6,             6,   6,    6,     6,     6,     6,     6,     6,     6,     6,     6,     6,      6, 
\      6|    | 7|    7,    7,    7,    7,             7,   7,    7,     7,     7,     7,     7,     7,     7,     7,     7,    
\  7,      7,      7|    | 8|    8,    8,    8,    8,             8,   8,    8,     8,     8,     8,     8,     8,     8,     8
\ ,     8,     8,      8,      8|    | 9|    9,    9,    9,    9,             9,   9,    9,     9,     9,     9,     9,     9, 
\     9,     9,     9,     9,      9,      9|    |10|   10,   10,   10,   10,            10,  10,   10,    10,    10,    10,   
\  10,    10,    10,    10,    10,    10,     10,     10|    |11|   11,   11,   11,   11,            11,  11,   11,    11,    1
\ 1,    11,    11,    11,    11,    11,    11,    11,     11,     11|    |12|   12,   12,   12,   12,            12,  12,   12,
\     12,    12,    12,    12,    12,    12,    12,    12,    12,     12,     12|;
\ minimize major_quaters:    sum <q,c> in CQ : quater[q,c] * x[q,c];
\ subto max_classes:    forall <q> in Q do      sum <c> in C : x[q,c] <= 3;
\ subto min_classes:    forall <q> in Q do      sum <c> in C : x[q,c] >= 1;
\ subto different_class:    forall <c> in C do      sum <q> in Q : x[q,c] <= sum <q> in Q : x[q,c]+ 1;
\Problem name: mathmajor.zpl
Minimize
 major_quaters:  + x#1$21A + x#1$21B + x#1$21C + x#1$21D + x#1$22A&108or67 + x#1$25
  + x#1$22B + x#1$128A + x#1$135A + x#1$135B + x#1$127A + x#1$127B
  + x#1$127C + x#1$160 + x#1$168 + x#1$167 + x#1$150A + x#1$CPSN
  +2 x#2$21A +2 x#2$21B +2 x#2$21C +2 x#2$21D +2 x#2$22A&108or67 +2 x#2$25
  +2 x#2$22B +2 x#2$128A +2 x#2$135A +2 x#2$135B +2 x#2$127A +2 x#2$127B
  +2 x#2$127C +2 x#2$160 +2 x#2$168 +2 x#2$167 +2 x#2$150A +2 x#2$CPSN
  +3 x#3$21A +3 x#3$21B +3 x#3$21C +3 x#3$21D +3 x#3$22A&108or67 +3 x#3$25
  +3 x#3$22B +3 x#3$128A +3 x#3$135A +3 x#3$135B +3 x#3$127A +3 x#3$127B
  +3 x#3$127C +3 x#3$160 +3 x#3$168 +3 x#3$167 +3 x#3$150A +3 x#3$CPSN
  +4 x#4$21A +4 x#4$21B +4 x#4$21C +4 x#4$21D +4 x#4$22A&108or67 +4 x#4$25
  +4 x#4$22B +4 x#4$128A +4 x#4$135A +4 x#4$135B +4 x#4$127A +4 x#4$127B
  +4 x#4$127C +4 x#4$160 +4 x#4$168 +4 x#4$167 +4 x#4$150A +4 x#4$CPSN
  +5 x#5$21A +5 x#5$21B +5 x#5$21C +5 x#5$21D +5 x#5$22A&108or67 +5 x#5$25
  +5 x#5$22B +5 x#5$128A +5 x#5$135A +5 x#5$135B +5 x#5$127A +5 x#5$127B
  +5 x#5$127C +5 x#5$160 +5 x#5$168 +5 x#5$167 +5 x#5$150A +5 x#5$CPSN
  +6 x#6$21A +6 x#6$21B +6 x#6$21C +6 x#6$21D +6 x#6$22A&108or67 +6 x#6$25
  +6 x#6$22B +6 x#6$128A +6 x#6$135A +6 x#6$135B +6 x#6$127A +6 x#6$127B
  +6 x#6$127C +6 x#6$160 +6 x#6$168 +6 x#6$167 +6 x#6$150A +6 x#6$CPSN
  +7 x#7$21A +7 x#7$21B +7 x#7$21C +7 x#7$21D +7 x#7$22A&108or67 +7 x#7$25
  +7 x#7$22B +7 x#7$128A +7 x#7$135A +7 x#7$135B +7 x#7$127A +7 x#7$127B
  +7 x#7$127C +7 x#7$160 +7 x#7$168 +7 x#7$167 +7 x#7$150A +7 x#7$CPSN
  +8 x#8$21A +8 x#8$21B +8 x#8$21C +8 x#8$21D +8 x#8$22A&108or67 +8 x#8$25
  +8 x#8$22B +8 x#8$128A +8 x#8$135A +8 x#8$135B +8 x#8$127A +8 x#8$127B
  +8 x#8$127C +8 x#8$160 +8 x#8$168 +8 x#8$167 +8 x#8$150A +8 x#8$CPSN
  +9 x#9$21A +9 x#9$21B +9 x#9$21C +9 x#9$21D +9 x#9$22A&108or67 +9 x#9$25
  +9 x#9$22B +9 x#9$128A +9 x#9$135A +9 x#9$135B +9 x#9$127A +9 x#9$127B
  +9 x#9$127C +9 x#9$160 +9 x#9$168 +9 x#9$167 +9 x#9$150A +9 x#9$CPSN
  +10 x#10$21A +10 x#10$21B +10 x#10$21C +10 x#10$21D +10 x#10$22A&108or67 +10 x#10$25
  +10 x#10$22B +10 x#10$128A +10 x#10$135A +10 x#10$135B +10 x#10$127A +10 x#10$127B
  +10 x#10$127C +10 x#10$160 +10 x#10$168 +10 x#10$167 +10 x#10$150A +10 x#10$CPSN
  +11 x#11$21A +11 x#11$21B +11 x#11$21C +11 x#11$21D +11 x#11$22A&108or67 +11 x#11$25
  +11 x#11$22B +11 x#11$128A +11 x#11$135A +11 x#11$135B +11 x#11$127A +11 x#11$127B
  +11 x#11$127C +11 x#11$160 +11 x#11$168 +11 x#11$167 +11 x#11$150A +11 x#11$CPSN
  +12 x#12$21A +12 x#12$21B +12 x#12$21C +12 x#12$21D +12 x#12$22A&108or67 +12 x#12$25
  +12 x#12$22B +12 x#12$128A +12 x#12$135A +12 x#12$135B +12 x#12$127A +12 x#12$127B
  +12 x#12$127C +12 x#12$160 +12 x#12$168 +12 x#12$167 +12 x#12$150A +12 x#12$CPSN
 
Subject to
 max_classes_1:
  + x#1$CPSN + x#1$150A + x#1$167 + x#1$168 + x#1$160 + x#1$127C
  + x#1$127B + x#1$127A + x#1$135B + x#1$135A + x#1$128A + x#1$22B
  + x#1$25 + x#1$22A&108or67 + x#1$21D + x#1$21C + x#1$21B + x#1$21A
  <= 3
 max_classes_2:
  + x#2$CPSN + x#2$150A + x#2$167 + x#2$168 + x#2$160 + x#2$127C
  + x#2$127B + x#2$127A + x#2$135B + x#2$135A + x#2$128A + x#2$22B
  + x#2$25 + x#2$22A&108or67 + x#2$21D + x#2$21C + x#2$21B + x#2$21A
  <= 3
 max_classes_3:
  + x#3$CPSN + x#3$150A + x#3$167 + x#3$168 + x#3$160 + x#3$127C
  + x#3$127B + x#3$127A + x#3$135B + x#3$135A + x#3$128A + x#3$22B
  + x#3$25 + x#3$22A&108or67 + x#3$21D + x#3$21C + x#3$21B + x#3$21A
  <= 3
 max_classes_4:
  + x#4$CPSN + x#4$150A + x#4$167 + x#4$168 + x#4$160 + x#4$127C
  + x#4$127B + x#4$127A + x#4$135B + x#4$135A + x#4$128A + x#4$22B
  + x#4$25 + x#4$22A&108or67 + x#4$21D + x#4$21C + x#4$21B + x#4$21A
  <= 3
 max_classes_5:
  + x#5$CPSN + x#5$150A + x#5$167 + x#5$168 + x#5$160 + x#5$127C
  + x#5$127B + x#5$127A + x#5$135B + x#5$135A + x#5$128A + x#5$22B
  + x#5$25 + x#5$22A&108or67 + x#5$21D + x#5$21C + x#5$21B + x#5$21A
  <= 3
 max_classes_6:
  + x#6$CPSN + x#6$150A + x#6$167 + x#6$168 + x#6$160 + x#6$127C
  + x#6$127B + x#6$127A + x#6$135B + x#6$135A + x#6$128A + x#6$22B
  + x#6$25 + x#6$22A&108or67 + x#6$21D + x#6$21C + x#6$21B + x#6$21A
  <= 3
 max_classes_7:
  + x#7$CPSN + x#7$150A + x#7$167 + x#7$168 + x#7$160 + x#7$127C
  + x#7$127B + x#7$127A + x#7$135B + x#7$135A + x#7$128A + x#7$22B
  + x#7$25 + x#7$22A&108or67 + x#7$21D + x#7$21C + x#7$21B + x#7$21A
  <= 3
 max_classes_8:
  + x#8$CPSN + x#8$150A + x#8$167 + x#8$168 + x#8$160 + x#8$127C
  + x#8$127B + x#8$127A + x#8$135B + x#8$135A + x#8$128A + x#8$22B
  + x#8$25 + x#8$22A&108or67 + x#8$21D + x#8$21C + x#8$21B + x#8$21A
  <= 3
 max_classes_9:
  + x#9$CPSN + x#9$150A + x#9$167 + x#9$168 + x#9$160 + x#9$127C
  + x#9$127B + x#9$127A + x#9$135B + x#9$135A + x#9$128A + x#9$22B
  + x#9$25 + x#9$22A&108or67 + x#9$21D + x#9$21C + x#9$21B + x#9$21A
  <= 3
 max_classes_10:
  + x#10$CPSN + x#10$150A + x#10$167 + x#10$168 + x#10$160 + x#10$127C
  + x#10$127B + x#10$127A + x#10$135B + x#10$135A + x#10$128A + x#10$22B
  + x#10$25 + x#10$22A&108or67 + x#10$21D + x#10$21C + x#10$21B + x#10$21A
  <= 3
 max_classes_11:
  + x#11$CPSN + x#11$150A + x#11$167 + x#11$168 + x#11$160 + x#11$127C
  + x#11$127B + x#11$127A + x#11$135B + x#11$135A + x#11$128A + x#11$22B
  + x#11$25 + x#11$22A&108or67 + x#11$21D + x#11$21C + x#11$21B + x#11$21A
  <= 3
 max_classes_12:
  + x#12$CPSN + x#12$150A + x#12$167 + x#12$168 + x#12$160 + x#12$127C
  + x#12$127B + x#12$127A + x#12$135B + x#12$135A + x#12$128A + x#12$22B
  + x#12$25 + x#12$22A&108or67 + x#12$21D + x#12$21C + x#12$21B + x#12$21A
  <= 3
 min_classes_1:
  + x#1$CPSN + x#1$150A + x#1$167 + x#1$168 + x#1$160 + x#1$127C
  + x#1$127B + x#1$127A + x#1$135B + x#1$135A + x#1$128A + x#1$22B
  + x#1$25 + x#1$22A&108or67 + x#1$21D + x#1$21C + x#1$21B + x#1$21A
  >= 1
 min_classes_2:
  + x#2$CPSN + x#2$150A + x#2$167 + x#2$168 + x#2$160 + x#2$127C
  + x#2$127B + x#2$127A + x#2$135B + x#2$135A + x#2$128A + x#2$22B
  + x#2$25 + x#2$22A&108or67 + x#2$21D + x#2$21C + x#2$21B + x#2$21A
  >= 1
 min_classes_3:
  + x#3$CPSN + x#3$150A + x#3$167 + x#3$168 + x#3$160 + x#3$127C
  + x#3$127B + x#3$127A + x#3$135B + x#3$135A + x#3$128A + x#3$22B
  + x#3$25 + x#3$22A&108or67 + x#3$21D + x#3$21C + x#3$21B + x#3$21A
  >= 1
 min_classes_4:
  + x#4$CPSN + x#4$150A + x#4$167 + x#4$168 + x#4$160 + x#4$127C
  + x#4$127B + x#4$127A + x#4$135B + x#4$135A + x#4$128A + x#4$22B
  + x#4$25 + x#4$22A&108or67 + x#4$21D + x#4$21C + x#4$21B + x#4$21A
  >= 1
 min_classes_5:
  + x#5$CPSN + x#5$150A + x#5$167 + x#5$168 + x#5$160 + x#5$127C
  + x#5$127B + x#5$127A + x#5$135B + x#5$135A + x#5$128A + x#5$22B
  + x#5$25 + x#5$22A&108or67 + x#5$21D + x#5$21C + x#5$21B + x#5$21A
  >= 1
 min_classes_6:
  + x#6$CPSN + x#6$150A + x#6$167 + x#6$168 + x#6$160 + x#6$127C
  + x#6$127B + x#6$127A + x#6$135B + x#6$135A + x#6$128A + x#6$22B
  + x#6$25 + x#6$22A&108or67 + x#6$21D + x#6$21C + x#6$21B + x#6$21A
  >= 1
 min_classes_7:
  + x#7$CPSN + x#7$150A + x#7$167 + x#7$168 + x#7$160 + x#7$127C
  + x#7$127B + x#7$127A + x#7$135B + x#7$135A + x#7$128A + x#7$22B
  + x#7$25 + x#7$22A&108or67 + x#7$21D + x#7$21C + x#7$21B + x#7$21A
  >= 1
 min_classes_8:
  + x#8$CPSN + x#8$150A + x#8$167 + x#8$168 + x#8$160 + x#8$127C
  + x#8$127B + x#8$127A + x#8$135B + x#8$135A + x#8$128A + x#8$22B
  + x#8$25 + x#8$22A&108or67 + x#8$21D + x#8$21C + x#8$21B + x#8$21A
  >= 1
 min_classes_9:
  + x#9$CPSN + x#9$150A + x#9$167 + x#9$168 + x#9$160 + x#9$127C
  + x#9$127B + x#9$127A + x#9$135B + x#9$135A + x#9$128A + x#9$22B
  + x#9$25 + x#9$22A&108or67 + x#9$21D + x#9$21C + x#9$21B + x#9$21A
  >= 1
 min_classes_10:
  + x#10$CPSN + x#10$150A + x#10$167 + x#10$168 + x#10$160 + x#10$127C
  + x#10$127B + x#10$127A + x#10$135B + x#10$135A + x#10$128A + x#10$22B
  + x#10$25 + x#10$22A&108or67 + x#10$21D + x#10$21C + x#10$21B + x#10$21A
  >= 1
 min_classes_11:
  + x#11$CPSN + x#11$150A + x#11$167 + x#11$168 + x#11$160 + x#11$127C
  + x#11$127B + x#11$127A + x#11$135B + x#11$135A + x#11$128A + x#11$22B
  + x#11$25 + x#11$22A&108or67 + x#11$21D + x#11$21C + x#11$21B + x#11$21A
  >= 1
 min_classes_12:
  + x#12$CPSN + x#12$150A + x#12$167 + x#12$168 + x#12$160 + x#12$127C
  + x#12$127B + x#12$127A + x#12$135B + x#12$135A + x#12$128A + x#12$22B
  + x#12$25 + x#12$22A&108or67 + x#12$21D + x#12$21C + x#12$21B + x#12$21A
  >= 1
 different_cla@18:
  +0 x#7$21A +0 x#8$21A +0 x#9$21A +0 x#10$21A +0 x#11$21A +0 x#12$21A
  <= 1
 different_cla@19:
  +0 x#7$21B +0 x#8$21B +0 x#9$21B +0 x#10$21B +0 x#11$21B +0 x#12$21B
  <= 1
 different_cla@1a:
  +0 x#7$21C +0 x#8$21C +0 x#9$21C +0 x#10$21C +0 x#11$21C +0 x#12$21C
  <= 1
 different_cla@1b:
  +0 x#7$21D +0 x#8$21D +0 x#9$21D +0 x#10$21D +0 x#11$21D +0 x#12$21D
  <= 1
 different_cla@1c:
  +0 x#7$22A&108or67 +0 x#8$22A&108or67 +0 x#9$22A&108or67 +0 x#10$22A&108or67 +0 x#11$22A&108or67 +0 x#12$22A&108or67
  <= 1
 different_cla@1d:
  +0 x#7$25 +0 x#8$25 +0 x#9$25 +0 x#10$25 +0 x#11$25 +0 x#12$25
  <= 1
 different_cla@1e:
  +0 x#7$22B +0 x#8$22B +0 x#9$22B +0 x#10$22B +0 x#11$22B +0 x#12$22B
  <= 1
 different_cla@1f:
  +0 x#7$128A +0 x#8$128A +0 x#9$128A +0 x#10$128A +0 x#11$128A +0 x#12$128A
  <= 1
 different_cla@20:
  +0 x#7$135A +0 x#8$135A +0 x#9$135A +0 x#10$135A +0 x#11$135A +0 x#12$135A
  <= 1
 different_cla@21:
  +0 x#7$135B +0 x#8$135B +0 x#9$135B +0 x#10$135B +0 x#11$135B +0 x#12$135B
  <= 1
 different_cla@22:
  +0 x#7$127A +0 x#8$127A +0 x#9$127A +0 x#10$127A +0 x#11$127A +0 x#12$127A
  <= 1
 different_cla@23:
  +0 x#7$127B +0 x#8$127B +0 x#9$127B +0 x#10$127B +0 x#11$127B +0 x#12$127B
  <= 1
 different_cla@24:
  +0 x#7$127C +0 x#8$127C +0 x#9$127C +0 x#10$127C +0 x#11$127C +0 x#12$127C
  <= 1
 different_cla@25:
  +0 x#7$160 +0 x#8$160 +0 x#9$160 +0 x#10$160 +0 x#11$160 +0 x#12$160
  <= 1
 different_cla@26:
  +0 x#7$168 +0 x#8$168 +0 x#9$168 +0 x#10$168 +0 x#11$168 +0 x#12$168
  <= 1
 different_cla@27:
  +0 x#7$167 +0 x#8$167 +0 x#9$167 +0 x#10$167 +0 x#11$167 +0 x#12$167
  <= 1
 different_cla@28:
  +0 x#7$150A +0 x#8$150A +0 x#9$150A +0 x#10$150A +0 x#11$150A +0 x#12$150A
  <= 1
 different_cla@29:
  +0 x#7$CPSN +0 x#8$CPSN +0 x#9$CPSN +0 x#10$CPSN +0 x#11$CPSN +0 x#12$CPSN
  <= 1
Bounds
 0 <= x#1$21A <= 1
 0 <= x#1$21B <= 1
 0 <= x#1$21C <= 1
 0 <= x#1$21D <= 1
 0 <= x#1$22A&108or67 <= 1
 0 <= x#1$25 <= 1
 0 <= x#1$22B <= 1
 0 <= x#1$128A <= 1
 0 <= x#1$135A <= 1
 0 <= x#1$135B <= 1
 0 <= x#1$127A <= 1
 0 <= x#1$127B <= 1
 0 <= x#1$127C <= 1
 0 <= x#1$160 <= 1
 0 <= x#1$168 <= 1
 0 <= x#1$167 <= 1
 0 <= x#1$150A <= 1
 0 <= x#1$CPSN <= 1
 0 <= x#2$21A <= 1
 0 <= x#2$21B <= 1
 0 <= x#2$21C <= 1
 0 <= x#2$21D <= 1
 0 <= x#2$22A&108or67 <= 1
 0 <= x#2$25 <= 1
 0 <= x#2$22B <= 1
 0 <= x#2$128A <= 1
 0 <= x#2$135A <= 1
 0 <= x#2$135B <= 1
 0 <= x#2$127A <= 1
 0 <= x#2$127B <= 1
 0 <= x#2$127C <= 1
 0 <= x#2$160 <= 1
 0 <= x#2$168 <= 1
 0 <= x#2$167 <= 1
 0 <= x#2$150A <= 1
 0 <= x#2$CPSN <= 1
 0 <= x#3$21A <= 1
 0 <= x#3$21B <= 1
 0 <= x#3$21C <= 1
 0 <= x#3$21D <= 1
 0 <= x#3$22A&108or67 <= 1
 0 <= x#3$25 <= 1
 0 <= x#3$22B <= 1
 0 <= x#3$128A <= 1
 0 <= x#3$135A <= 1
 0 <= x#3$135B <= 1
 0 <= x#3$127A <= 1
 0 <= x#3$127B <= 1
 0 <= x#3$127C <= 1
 0 <= x#3$160 <= 1
 0 <= x#3$168 <= 1
 0 <= x#3$167 <= 1
 0 <= x#3$150A <= 1
 0 <= x#3$CPSN <= 1
 0 <= x#4$21A <= 1
 0 <= x#4$21B <= 1
 0 <= x#4$21C <= 1
 0 <= x#4$21D <= 1
 0 <= x#4$22A&108or67 <= 1
 0 <= x#4$25 <= 1
 0 <= x#4$22B <= 1
 0 <= x#4$128A <= 1
 0 <= x#4$135A <= 1
 0 <= x#4$135B <= 1
 0 <= x#4$127A <= 1
 0 <= x#4$127B <= 1
 0 <= x#4$127C <= 1
 0 <= x#4$160 <= 1
 0 <= x#4$168 <= 1
 0 <= x#4$167 <= 1
 0 <= x#4$150A <= 1
 0 <= x#4$CPSN <= 1
 0 <= x#5$21A <= 1
 0 <= x#5$21B <= 1
 0 <= x#5$21C <= 1
 0 <= x#5$21D <= 1
 0 <= x#5$22A&108or67 <= 1
 0 <= x#5$25 <= 1
 0 <= x#5$22B <= 1
 0 <= x#5$128A <= 1
 0 <= x#5$135A <= 1
 0 <= x#5$135B <= 1
 0 <= x#5$127A <= 1
 0 <= x#5$127B <= 1
 0 <= x#5$127C <= 1
 0 <= x#5$160 <= 1
 0 <= x#5$168 <= 1
 0 <= x#5$167 <= 1
 0 <= x#5$150A <= 1
 0 <= x#5$CPSN <= 1
 0 <= x#6$21A <= 1
 0 <= x#6$21B <= 1
 0 <= x#6$21C <= 1
 0 <= x#6$21D <= 1
 0 <= x#6$22A&108or67 <= 1
 0 <= x#6$25 <= 1
 0 <= x#6$22B <= 1
 0 <= x#6$128A <= 1
 0 <= x#6$135A <= 1
 0 <= x#6$135B <= 1
 0 <= x#6$127A <= 1
 0 <= x#6$127B <= 1
 0 <= x#6$127C <= 1
 0 <= x#6$160 <= 1
 0 <= x#6$168 <= 1
 0 <= x#6$167 <= 1
 0 <= x#6$150A <= 1
 0 <= x#6$CPSN <= 1
 0 <= x#7$21A <= 1
 0 <= x#7$21B <= 1
 0 <= x#7$21C <= 1
 0 <= x#7$21D <= 1
 0 <= x#7$22A&108or67 <= 1
 0 <= x#7$25 <= 1
 0 <= x#7$22B <= 1
 0 <= x#7$128A <= 1
 0 <= x#7$135A <= 1
 0 <= x#7$135B <= 1
 0 <= x#7$127A <= 1
 0 <= x#7$127B <= 1
 0 <= x#7$127C <= 1
 0 <= x#7$160 <= 1
 0 <= x#7$168 <= 1
 0 <= x#7$167 <= 1
 0 <= x#7$150A <= 1
 0 <= x#7$CPSN <= 1
 0 <= x#8$21A <= 1
 0 <= x#8$21B <= 1
 0 <= x#8$21C <= 1
 0 <= x#8$21D <= 1
 0 <= x#8$22A&108or67 <= 1
 0 <= x#8$25 <= 1
 0 <= x#8$22B <= 1
 0 <= x#8$128A <= 1
 0 <= x#8$135A <= 1
 0 <= x#8$135B <= 1
 0 <= x#8$127A <= 1
 0 <= x#8$127B <= 1
 0 <= x#8$127C <= 1
 0 <= x#8$160 <= 1
 0 <= x#8$168 <= 1
 0 <= x#8$167 <= 1
 0 <= x#8$150A <= 1
 0 <= x#8$CPSN <= 1
 0 <= x#9$21A <= 1
 0 <= x#9$21B <= 1
 0 <= x#9$21C <= 1
 0 <= x#9$21D <= 1
 0 <= x#9$22A&108or67 <= 1
 0 <= x#9$25 <= 1
 0 <= x#9$22B <= 1
 0 <= x#9$128A <= 1
 0 <= x#9$135A <= 1
 0 <= x#9$135B <= 1
 0 <= x#9$127A <= 1
 0 <= x#9$127B <= 1
 0 <= x#9$127C <= 1
 0 <= x#9$160 <= 1
 0 <= x#9$168 <= 1
 0 <= x#9$167 <= 1
 0 <= x#9$150A <= 1
 0 <= x#9$CPSN <= 1
 0 <= x#10$21A <= 1
 0 <= x#10$21B <= 1
 0 <= x#10$21C <= 1
 0 <= x#10$21D <= 1
 0 <= x#10$22A&108or67 <= 1
 0 <= x#10$25 <= 1
 0 <= x#10$22B <= 1
 0 <= x#10$128A <= 1
 0 <= x#10$135A <= 1
 0 <= x#10$135B <= 1
 0 <= x#10$127A <= 1
 0 <= x#10$127B <= 1
 0 <= x#10$127C <= 1
 0 <= x#10$160 <= 1
 0 <= x#10$168 <= 1
 0 <= x#10$167 <= 1
 0 <= x#10$150A <= 1
 0 <= x#10$CPSN <= 1
 0 <= x#11$21A <= 1
 0 <= x#11$21B <= 1
 0 <= x#11$21C <= 1
 0 <= x#11$21D <= 1
 0 <= x#11$22A&108or67 <= 1
 0 <= x#11$25 <= 1
 0 <= x#11$22B <= 1
 0 <= x#11$128A <= 1
 0 <= x#11$135A <= 1
 0 <= x#11$135B <= 1
 0 <= x#11$127A <= 1
 0 <= x#11$127B <= 1
 0 <= x#11$127C <= 1
 0 <= x#11$160 <= 1
 0 <= x#11$168 <= 1
 0 <= x#11$167 <= 1
 0 <= x#11$150A <= 1
 0 <= x#11$CPSN <= 1
 0 <= x#12$21A <= 1
 0 <= x#12$21B <= 1
 0 <= x#12$21C <= 1
 0 <= x#12$21D <= 1
 0 <= x#12$22A&108or67 <= 1
 0 <= x#12$25 <= 1
 0 <= x#12$22B <= 1
 0 <= x#12$128A <= 1
 0 <= x#12$135A <= 1
 0 <= x#12$135B <= 1
 0 <= x#12$127A <= 1
 0 <= x#12$127B <= 1
 0 <= x#12$127C <= 1
 0 <= x#12$160 <= 1
 0 <= x#12$168 <= 1
 0 <= x#12$167 <= 1
 0 <= x#12$150A <= 1
 0 <= x#12$CPSN <= 1
General
 x#1$21A
 x#1$21B
 x#1$21C
 x#1$21D
 x#1$22A&108or67
 x#1$25
 x#1$22B
 x#1$128A
 x#1$135A
 x#1$135B
 x#1$127A
 x#1$127B
 x#1$127C
 x#1$160
 x#1$168
 x#1$167
 x#1$150A
 x#1$CPSN
 x#2$21A
 x#2$21B
 x#2$21C
 x#2$21D
 x#2$22A&108or67
 x#2$25
 x#2$22B
 x#2$128A
 x#2$135A
 x#2$135B
 x#2$127A
 x#2$127B
 x#2$127C
 x#2$160
 x#2$168
 x#2$167
 x#2$150A
 x#2$CPSN
 x#3$21A
 x#3$21B
 x#3$21C
 x#3$21D
 x#3$22A&108or67
 x#3$25
 x#3$22B
 x#3$128A
 x#3$135A
 x#3$135B
 x#3$127A
 x#3$127B
 x#3$127C
 x#3$160
 x#3$168
 x#3$167
 x#3$150A
 x#3$CPSN
 x#4$21A
 x#4$21B
 x#4$21C
 x#4$21D
 x#4$22A&108or67
 x#4$25
 x#4$22B
 x#4$128A
 x#4$135A
 x#4$135B
 x#4$127A
 x#4$127B
 x#4$127C
 x#4$160
 x#4$168
 x#4$167
 x#4$150A
 x#4$CPSN
 x#5$21A
 x#5$21B
 x#5$21C
 x#5$21D
 x#5$22A&108or67
 x#5$25
 x#5$22B
 x#5$128A
 x#5$135A
 x#5$135B
 x#5$127A
 x#5$127B
 x#5$127C
 x#5$160
 x#5$168
 x#5$167
 x#5$150A
 x#5$CPSN
 x#6$21A
 x#6$21B
 x#6$21C
 x#6$21D
 x#6$22A&108or67
 x#6$25
 x#6$22B
 x#6$128A
 x#6$135A
 x#6$135B
 x#6$127A
 x#6$127B
 x#6$127C
 x#6$160
 x#6$168
 x#6$167
 x#6$150A
 x#6$CPSN
 x#7$21A
 x#7$21B
 x#7$21C
 x#7$21D
 x#7$22A&108or67
 x#7$25
 x#7$22B
 x#7$128A
 x#7$135A
 x#7$135B
 x#7$127A
 x#7$127B
 x#7$127C
 x#7$160
 x#7$168
 x#7$167
 x#7$150A
 x#7$CPSN
 x#8$21A
 x#8$21B
 x#8$21C
 x#8$21D
 x#8$22A&108or67
 x#8$25
 x#8$22B
 x#8$128A
 x#8$135A
 x#8$135B
 x#8$127A
 x#8$127B
 x#8$127C
 x#8$160
 x#8$168
 x#8$167
 x#8$150A
 x#8$CPSN
 x#9$21A
 x#9$21B
 x#9$21C
 x#9$21D
 x#9$22A&108or67
 x#9$25
 x#9$22B
 x#9$128A
 x#9$135A
 x#9$135B
 x#9$127A
 x#9$127B
 x#9$127C
 x#9$160
 x#9$168
 x#9$167
 x#9$150A
 x#9$CPSN
 x#10$21A
 x#10$21B
 x#10$21C
 x#10$21D
 x#10$22A&108or67
 x#10$25
 x#10$22B
 x#10$128A
 x#10$135A
 x#10$135B
 x#10$127A
 x#10$127B
 x#10$127C
 x#10$160
 x#10$168
 x#10$167
 x#10$150A
 x#10$CPSN
 x#11$21A
 x#11$21B
 x#11$21C
 x#11$21D
 x#11$22A&108or67
 x#11$25
 x#11$22B
 x#11$128A
 x#11$135A
 x#11$135B
 x#11$127A
 x#11$127B
 x#11$127C
 x#11$160
 x#11$168
 x#11$167
 x#11$150A
 x#11$CPSN
 x#12$21A
 x#12$21B
 x#12$21C
 x#12$21D
 x#12$22A&108or67
 x#12$25
 x#12$22B
 x#12$128A
 x#12$135A
 x#12$135B
 x#12$127A
 x#12$127B
 x#12$127C
 x#12$160
 x#12$168
 x#12$167
 x#12$150A
 x#12$CPSN
End
